mixintcount/benchmarks/random_v2l/3_3_1412.smt2
(set-logic QF_LIA)
(set-info :ran/ran2.smt2)
(set-info :smt-lib-version 2.0)
(declare-fun x1 () Int)
(declare-fun x2 () Int)
(declare-fun x3 () Int)
(assert (<= (+ (* 8 x1) (* (- 2) x2) (* 6 x3) ) (- 863)))
(assert (<= (+ (* 10 x1) (* 6 x2) (* (- 5) x3) ) (- 272)))
(assert (<= (+ (* 3 x1) (* 9 x2) (* (- 2) x3) ) (- 583)))
(assert (<= (+ (* 10 x1) (* (- 1) x2) (* 0 x3) ) 84))
(assert (<= (+ (* 5 x1) (* 8 x2) (* 0 x3) ) 993))
(assert (<= (+ (* 4 x1) (* (- 3) x2) (* (- 3) x3) ) (- 837)))
(assert (<= (+ (* 1 x1) (* 0 x2) (* 0 x3) ) 1412))
(assert (<= (+ (* (- 1) x1) (* 0 x2) (* 0 x3) ) 1412))
(assert (<= (+ (* 0 x1) (* 1 x2) (* 0 x3) ) 1412))
(assert (<= (+ (* 0 x1) (* (- 1) x2) (* 0 x3) ) 1412))
(assert (<= (+ (* 0 x1) (* 0 x2) (* 1 x3) ) 1412))
(assert (<= (+ (* 0 x1) (* 0 x2) (* (- 1) x3) ) 1412))
