mixintcount/benchmarks/random_v2l/3_3_1412.in
12 5
#	x1	x2	x3;		0 = Real; 1 = Integer
	1	1	1
1	8	-2	6	-863
1	10	6	-5	-272
1	3	9	-2	-583
1	10	-1	0	84
1	5	8	0	993
1	4	-3	-3	-837
1	1	0	0	1412
1	-1	0	0	1412
1	0	1	0	1412
1	0	-1	0	1412
1	0	0	1	1412
1	0	0	-1	1412
